20	2
9	6	
0	0	0	9	2	3	4	5	7	9	11	14	19	
17	2	2	3	10	16	12	
865	2	2	2	8	6	
1018	2	2	1	20	
6	2	2	1	13	
5	2	2	2	17	18	
365	2	2	2	16	12	
7	2	2	1	15	
18	3	2	2	15	18	
868	2	2	1	20	
598	3	2	1	20	
6	3	2	1	20	
1075	3	2	1	17	
499	3	2	1	15	
19	2	2	1	20	
10	3	2	1	20	
14	2	2	1	20	
388	2	2	1	20	
5	2	2	1	20	
0	0	0	0	